[1612, 1534, 1496, 1342, 1342, 1220, 1206, 1206, 1136, 1134, 1116, 1026, 1026, 944, 1008, 1008, 954, 910, 954, 944, 868, 768, 768, 732, 732, 732, 696, 696, 696, 696, 552, 552, 544, 544, 544, 544, 544, 544, 536, 536, 520, 512, 512, 512, 504, 504, 504, 480, 378, 456, 378, 456, 448, 448, 448, 448, 414, 414, 414, 414, 414, 414, 414, 414, 414, 414, 342, 342, 342, 228, 256, 342, 342, 280, 280, 280, 260, 260, 280, 264, 264, 256, 256, 244, 244, 244, 244, 244, 244, 244, 244, 244, 244, 244, 244, 244, 244, 244, 244, 244, 240, 240, 240, 128, 122, 122, 122, 122, 122, 122, 122, 122, 122, 122, 122, 122, 122, 122, 122, 122, 122, 122, 122, 122, 122, 122, 122, 122, 122, 122, 122, 122, 122, 122, 122, 122, 122, 122, 122, 122, 122, 122, 122, 122, 122, 122, 122, 122, 122, 122, 122, 122, 122, 122, 122, 122, 122, 122, 122, 122, 122, 122, 122, 122, 122, 122, 122, 122, 122, 122, 122, 122, 122, 122, 122, 122, 122, 122, 122, 122, 122, 122, 122, 122, 122, 122, 122, 122, 122, 122, 122, 122, 122, 122, 122, 122, 122, 122, 122, 122]